120
1000
200
200
200
200
200
199
198
198
198
197
197
196
196
196
196
196
195
195
195
195
195
195
194
194
194
194
193
193
193
193
192
192
191
190
190
190
189
189
189
188
186
186
186
186
184
184
184
184
183
183
182
181
181
180
179
179
179
179
177
177
177
176
176
176
175
175
173
173
173
172
172
172
172
172
172
172
171
170
169
169
168
168
168
167
167
164
164
163
162
162
161
160
160
159
159
158
158
158
158
157
156
156
156
155
155
153
153
153
152
152
152
152
152
151
151
151
151
151
150
150
